SAT
-44 -7 -89 25 -11 -15 -8 -19 38 105 80 -111 -78 28 66 34 -70 69 -106 -81 2 -96 -35 16 121 -68 102 -53 -88 4 -54 -65 -91 -100 -59 -37 64 98 72 -87 93 74 -60 113 -104 -124 31 -86 -97 123 1 -57 36 -46 13 -17 -5 -22 -116 6 110 -12 118 -77 48 -112 -122 103 47 -9 23 -39 -79 -109 85 -42 24 40 117 -120 73 -108 27 63 33 -41 101 -3 67 32 -21 -92 83 43 -18 -62 -55 -114 90 -61 26 -49 95 -115 -58 107 -50 -14 -82 20 -10 -71 -94 -84 -119 125 -51 -99 -45 -76 -56 30 -52 75 -29 0
